Instance Name : r209
Date : 2022-07-21
Solution
Route 1 : 95 59 98 100 44 14 38 86 16 61 85 99 94 13 87 57 15 43 42 97 92 37 91 93 96
Route 2 : 6 5 83 8 82 7 18 84 17 45 46 48 60 89
Route 3 : 52 31 88 62 63 11 19 47 36 49 64 10 90 32 66 20 1
Route 4 : 27 69 70 30 51 9 33 81 71 65 35 34 78 79 3 77 50
Route 5 : 28 12 76 29 24 68 80 54 26
Route 6 : 40 2 73 21 72 75 23 67 39 25 55 4 56 74 22 41 58 53
